TYPE : Vertex Cover
DIMENSION: 28
EDGE_DATA_SECTION:
0 4
0 5
0 8
0 15
2 8
2 10
2 16
2 18
2 24
3 5
3 14
3 15
3 24
3 25
3 26
4 8
4 10
4 14
4 19
4 27
5 7
5 14
5 22
6 7
6 24
6 25
7 10
7 12
7 19
7 24
8 15
8 19
8 20
9 12
9 24
9 26
10 11
10 17
10 23
10 24
11 15
11 20
11 21
11 25
12 15
12 19
12 21
14 15
14 16
14 23
15 18
15 21
16 19
16 21
16 23
16 24
17 20
17 23
17 27
18 24
18 27
20 21
22 24
23 26
25 26
-1
VERTEX_DEGREE:
4.0 0.0 5.0 6.0 6.0 5.0 3.0 6.0 6.0 3.0 7.0 5.0 5.0 0.0 6.0 8.0 6.0 4.0 4.0 5.0 4.0 5.0 2.0 5.0 9.0 4.0 4.0 3.0
VERTEX_COVER:
4 5 7 8 10 12 14 15 16 17 18 20 21 24 25 26
EOF
